bad_dk_dual_Sheet4.sol
# Solution for model dual
# Objective value = 1.6736244392404706e+02
y[0] 75
y[1] 40.7
y[2] 21.5
y[3] 5.1624439240470537e+00
gamma[0,0] 0
gamma[0,1] 0
gamma[0,2] 0
gamma[1,0] 1.0634328358208940e-01
gamma[1,1] 0
gamma[1,2] 0
gamma[2,0] 0
gamma[2,1] 0
gamma[2,2] 1.1342155009451802e-02
gamma[3,0] 5.3750623066143852e-02
gamma[3,1] 0
gamma[3,2] 1.0853263612623724e-01
w[0,0] 0
w[0,1] 0
w[0,2] 1.1987479113568902e-01
w[1,0] 0
w[1,1] 0
w[1,2] 0
w[2,0] 0
w[2,1] 0
w[2,2] 0
w[3,0] 0
w[3,1] 0
w[3,2] 0
sigma[0,0] 7.2003130221607781e-01
sigma[0,1] 1.5599373955678444e+00
sigma[0,2] 1
sigma[1,0] 1.1063432835820892e+00
sigma[1,1] 1.7467811158798283e+00
sigma[1,2] 1
sigma[2,0] 1
sigma[2,1] 1.9907407407407407e+00
sigma[2,2] 1.0113421550094517e+00
sigma[3,0] 1.0537506230661438e+00
sigma[3,1] 1.0324887848094106e+00
sigma[3,2] 1.1085326361262373e+00
beta[0,0] 1.6009390664823323e-01
beta[0,1] 0
beta[0,2] 0
beta[1,0] 0
beta[1,1] 0
beta[1,2] 0
beta[2,0] 0
beta[2,1] 0
beta[2,2] 0
beta[3,0] 0
beta[3,1] 0
beta[3,2] 0
